NAME: tamirys
TYPE: TSP
DIMENSION: 2601
START_POINT: 0.8187459 1.4266254
TARGET_POINT: 2.5 1.75
EDGE_WEIGHT_TYPE: EUC_2D
NODE_COORD_SECTION
1 0.0 0.0
2 0.0 0.1
3 0.0 0.2
4 0.0 0.3
5 0.0 0.4
6 0.0 0.5
7 0.0 0.6
8 0.0 0.7
9 0.0 0.8
10 0.0 0.9
11 0.0 1.0
12 0.0 1.1
13 0.0 1.2
14 0.0 1.3
15 0.0 1.4
16 0.0 1.5
17 0.0 1.6
18 0.0 1.7
19 0.0 1.8
20 0.0 1.9
21 0.0 2.0
22 0.0 2.1
23 0.0 2.2
24 0.0 2.3
25 0.0 2.4
26 0.0 2.5
27 0.0 2.6
28 0.0 2.7
29 0.0 2.8
30 0.0 2.9
31 0.0 3.0
32 0.0 3.1
33 0.0 3.2
34 0.0 3.3
35 0.0 3.4
36 0.0 3.5
37 0.0 3.6
38 0.0 3.7
39 0.0 3.8
40 0.0 3.9
41 0.0 4.0
42 0.0 4.1
43 0.0 4.2
44 0.0 4.3
45 0.0 4.4
46 0.0 4.5
47 0.0 4.6
48 0.0 4.7
49 0.0 4.8
50 0.0 4.9
51 0.0 5.0
52 0.1 0.0
53 0.1 0.1
54 0.1 0.2
55 0.1 0.3
56 0.1 0.4
57 0.1 0.5
58 0.1 0.6
59 0.1 0.7
60 0.1 0.8
61 0.1 0.9
62 0.1 1.0
63 0.1 1.1
64 0.1 1.2
65 0.1 1.3
66 0.1 1.4
67 0.1 1.5
68 0.1 1.6
69 0.1 1.7
70 0.1 1.8
71 0.1 1.9
72 0.1 2.0
73 0.1 2.1
74 0.1 2.2
75 0.1 2.3
76 0.1 2.4
77 0.1 2.5
78 0.1 2.6
79 0.1 2.7
80 0.1 2.8
81 0.1 2.9
82 0.1 3.0
83 0.1 3.1
84 0.1 3.2
85 0.1 3.3
86 0.1 3.4
87 0.1 3.5
88 0.1 3.6
89 0.1 3.7
90 0.1 3.8
91 0.1 3.9
92 0.1 4.0
93 0.1 4.1
94 0.1 4.2
95 0.1 4.3
96 0.1 4.4
97 0.1 4.5
98 0.1 4.6
99 0.1 4.7
100 0.1 4.8
101 0.1 4.9
102 0.1 5.0
103 0.2 0.0
104 0.2 0.1
105 0.2 0.2
106 0.2 0.3
107 0.2 0.4
108 0.2 0.5
109 0.2 0.6
110 0.2 0.7
111 0.2 0.8
112 0.2 0.9
113 0.2 1.0
114 0.2 1.1
115 0.2 1.2
116 0.2 1.3
117 0.2 1.4
118 0.2 1.5
119 0.2 1.6
120 0.2 1.7
121 0.2 1.8
122 0.2 1.9
123 0.2 2.0
124 0.2 2.1
125 0.2 2.2
126 0.2 2.3
127 0.2 2.4
128 0.2 2.5
129 0.2 2.6
130 0.2 2.7
131 0.2 2.8
132 0.2 2.9
133 0.2 3.0
134 0.2 3.1
135 0.2 3.2
136 0.2 3.3
137 0.2 3.4
138 0.2 3.5
139 0.2 3.6
140 0.2 3.7
141 0.2 3.8
142 0.2 3.9
143 0.2 4.0
144 0.2 4.1
145 0.2 4.2
146 0.2 4.3
147 0.2 4.4
148 0.2 4.5
149 0.2 4.6
150 0.2 4.7
151 0.2 4.8
152 0.2 4.9
153 0.2 5.0
154 0.3 0.0
155 0.3 0.1
156 0.3 0.2
157 0.3 0.3
158 0.3 0.4
159 0.3 0.5
160 0.3 0.6
161 0.3 0.7
162 0.3 0.8
163 0.3 0.9
164 0.3 1.0
165 0.3 1.1
166 0.3 1.2
167 0.3 1.3
168 0.3 1.4
169 0.3 1.5
170 0.3 1.6
171 0.3 1.7
172 0.3 1.8
173 0.3 1.9
174 0.3 2.0
175 0.3 2.1
176 0.3 2.2
177 0.3 2.3
178 0.3 2.4
179 0.3 2.5
180 0.3 2.6
181 0.3 2.7
182 0.3 2.8
183 0.3 2.9
184 0.3 3.0
185 0.3 3.1
186 0.3 3.2
187 0.3 3.3
188 0.3 3.4
189 0.3 3.5
190 0.3 3.6
191 0.3 3.7
192 0.3 3.8
193 0.3 3.9
194 0.3 4.0
195 0.3 4.1
196 0.3 4.2
197 0.3 4.3
198 0.3 4.4
199 0.3 4.5
200 0.3 4.6
201 0.3 4.7
202 0.3 4.8
203 0.3 4.9
204 0.3 5.0
205 0.4 0.0
206 0.4 0.1
207 0.4 0.2
208 0.4 0.3
209 0.4 0.4
210 0.4 0.5
211 0.4 0.6
212 0.4 0.7
213 0.4 0.8
214 0.4 0.9
215 0.4 1.0
216 0.4 1.1
217 0.4 1.2
218 0.4 1.3
219 0.4 1.4
220 0.4 1.5
221 0.4 1.6
222 0.4 1.7
223 0.4 1.8
224 0.4 1.9
225 0.4 2.0
226 0.4 2.1
227 0.4 2.2
228 0.4 2.3
229 0.4 2.4
230 0.4 2.5
231 0.4 2.6
232 0.4 2.7
233 0.4 2.8
234 0.4 2.9
235 0.4 3.0
236 0.4 3.1
237 0.4 3.2
238 0.4 3.3
239 0.4 3.4
240 0.4 3.5
241 0.4 3.6
242 0.4 3.7
243 0.4 3.8
244 0.4 3.9
245 0.4 4.0
246 0.4 4.1
247 0.4 4.2
248 0.4 4.3
249 0.4 4.4
250 0.4 4.5
251 0.4 4.6
252 0.4 4.7
253 0.4 4.8
254 0.4 4.9
255 0.4 5.0
256 0.5 0.0
257 0.5 0.1
258 0.5 0.2
259 0.5 0.3
260 0.5 0.4
261 0.5 0.5
262 0.5 0.6
263 0.5 0.7
264 0.5 0.8
265 0.5 0.9
266 0.5 1.0
267 0.5 1.1
268 0.5 1.2
269 0.5 1.3
270 0.5 1.4
271 0.5 1.5
272 0.5 1.6
273 0.5 1.7
274 0.5 1.8
275 0.5 1.9
276 0.5 2.0
277 0.5 2.1
278 0.5 2.2
279 0.5 2.3
280 0.5 2.4
281 0.5 2.5
282 0.5 2.6
283 0.5 2.7
284 0.5 2.8
285 0.5 2.9
286 0.5 3.0
287 0.5 3.1
288 0.5 3.2
289 0.5 3.3
290 0.5 3.4
291 0.5 3.5
292 0.5 3.6
293 0.5 3.7
294 0.5 3.8
295 0.5 3.9
296 0.5 4.0
297 0.5 4.1
298 0.5 4.2
299 0.5 4.3
300 0.5 4.4
301 0.5 4.5
302 0.5 4.6
303 0.5 4.7
304 0.5 4.8
305 0.5 4.9
306 0.5 5.0
307 0.6 0.0
308 0.6 0.1
309 0.6 0.2
310 0.6 0.3
311 0.6 0.4
312 0.6 0.5
313 0.6 0.6
314 0.6 0.7
315 0.6 0.8
316 0.6 0.9
317 0.6 1.0
318 0.6 1.1
319 0.6 1.2
320 0.6 1.3
321 0.6 1.4
322 0.6 1.5
323 0.6 1.6
324 0.6 1.7
325 0.6 1.8
326 0.6 1.9
327 0.6 2.0
328 0.6 2.1
329 0.6 2.2
330 0.6 2.3
331 0.6 2.4
332 0.6 2.5
333 0.6 2.6
334 0.6 2.7
335 0.6 2.8
336 0.6 2.9
337 0.6 3.0
338 0.6 3.1
339 0.6 3.2
340 0.6 3.3
341 0.6 3.4
342 0.6 3.5
343 0.6 3.6
344 0.6 3.7
345 0.6 3.8
346 0.6 3.9
347 0.6 4.0
348 0.6 4.1
349 0.6 4.2
350 0.6 4.3
351 0.6 4.4
352 0.6 4.5
353 0.6 4.6
354 0.6 4.7
355 0.6 4.8
356 0.6 4.9
357 0.6 5.0
358 0.7 0.0
359 0.7 0.1
360 0.7 0.2
361 0.7 0.3
362 0.7 0.4
363 0.7 0.5
364 0.7 0.6
365 0.7 0.7
366 0.7 0.8
367 0.7 0.9
368 0.7 1.0
369 0.7 1.1
370 0.7 1.2
371 0.7 1.3
372 0.7 1.4
373 0.7 1.5
374 0.7 1.6
375 0.7 1.7
376 0.7 1.8
377 0.7 1.9
378 0.7 2.0
379 0.7 2.1
380 0.7 2.2
381 0.7 2.3
382 0.7 2.4
383 0.7 2.5
384 0.7 2.6
385 0.7 2.7
386 0.7 2.8
387 0.7 2.9
388 0.7 3.0
389 0.7 3.1
390 0.7 3.2
391 0.7 3.3
392 0.7 3.4
393 0.7 3.5
394 0.7 3.6
395 0.7 3.7
396 0.7 3.8
397 0.7 3.9
398 0.7 4.0
399 0.7 4.1
400 0.7 4.2
401 0.7 4.3
402 0.7 4.4
403 0.7 4.5
404 0.7 4.6
405 0.7 4.7
406 0.7 4.8
407 0.7 4.9
408 0.7 5.0
409 0.8 0.0
410 0.8 0.1
411 0.8 0.2
412 0.8 0.3
413 0.8 0.4
414 0.8 0.5
415 0.8 0.6
416 0.8 0.7
417 0.8 0.8
418 0.8 0.9
419 0.8 1.0
420 0.8 1.1
421 0.8 1.2
422 0.8 1.3
423 0.8 1.4
424 0.8 1.5
425 0.8 1.6
426 0.8 1.7
427 0.8 1.8
428 0.8 1.9
429 0.8 2.0
430 0.8 2.1
431 0.8 2.2
432 0.8 2.3
433 0.8 2.4
434 0.8 2.5
435 0.8 2.6
436 0.8 2.7
437 0.8 2.8
438 0.8 2.9
439 0.8 3.0
440 0.8 3.1
441 0.8 3.2
442 0.8 3.3
443 0.8 3.4
444 0.8 3.5
445 0.8 3.6
446 0.8 3.7
447 0.8 3.8
448 0.8 3.9
449 0.8 4.0
450 0.8 4.1
451 0.8 4.2
452 0.8 4.3
453 0.8 4.4
454 0.8 4.5
455 0.8 4.6
456 0.8 4.7
457 0.8 4.8
458 0.8 4.9
459 0.8 5.0
460 0.9 0.0
461 0.9 0.1
462 0.9 0.2
463 0.9 0.3
464 0.9 0.4
465 0.9 0.5
466 0.9 0.6
467 0.9 0.7
468 0.9 0.8
469 0.9 0.9
470 0.9 1.0
471 0.9 1.1
472 0.9 1.2
473 0.9 1.3
474 0.9 1.4
475 0.9 1.5
476 0.9 1.6
477 0.9 1.7
478 0.9 1.8
479 0.9 1.9
480 0.9 2.0
481 0.9 2.1
482 0.9 2.2
483 0.9 2.3
484 0.9 2.4
485 0.9 2.5
486 0.9 2.6
487 0.9 2.7
488 0.9 2.8
489 0.9 2.9
490 0.9 3.0
491 0.9 3.1
492 0.9 3.2
493 0.9 3.3
494 0.9 3.4
495 0.9 3.5
496 0.9 3.6
497 0.9 3.7
498 0.9 3.8
499 0.9 3.9
500 0.9 4.0
501 0.9 4.1
502 0.9 4.2
503 0.9 4.3
504 0.9 4.4
505 0.9 4.5
506 0.9 4.6
507 0.9 4.7
508 0.9 4.8
509 0.9 4.9
510 0.9 5.0
511 1.0 0.0
512 1.0 0.1
513 1.0 0.2
514 1.0 0.3
515 1.0 0.4
516 1.0 0.5
517 1.0 0.6
518 1.0 0.7
519 1.0 0.8
520 1.0 0.9
521 1.0 1.0
522 1.0 1.1
523 1.0 1.2
524 1.0 1.3
525 1.0 1.4
526 1.0 1.5
527 1.0 1.6
528 1.0 1.7
529 1.0 1.8
530 1.0 1.9
531 1.0 2.0
532 1.0 2.1
533 1.0 2.2
534 1.0 2.3
535 1.0 2.4
536 1.0 2.5
537 1.0 2.6
538 1.0 2.7
539 1.0 2.8
540 1.0 2.9
541 1.0 3.0
542 1.0 3.1
543 1.0 3.2
544 1.0 3.3
545 1.0 3.4
546 1.0 3.5
547 1.0 3.6
548 1.0 3.7
549 1.0 3.8
550 1.0 3.9
551 1.0 4.0
552 1.0 4.1
553 1.0 4.2
554 1.0 4.3
555 1.0 4.4
556 1.0 4.5
557 1.0 4.6
558 1.0 4.7
559 1.0 4.8
560 1.0 4.9
561 1.0 5.0
562 1.1 0.0
563 1.1 0.1
564 1.1 0.2
565 1.1 0.3
566 1.1 0.4
567 1.1 0.5
568 1.1 0.6
569 1.1 0.7
570 1.1 0.8
571 1.1 0.9
572 1.1 1.0
573 1.1 1.1
574 1.1 1.2
575 1.1 1.3
576 1.1 1.4
577 1.1 1.5
578 1.1 1.6
579 1.1 1.7
580 1.1 1.8
581 1.1 1.9
582 1.1 2.0
583 1.1 2.1
584 1.1 2.2
585 1.1 2.3
586 1.1 2.4
587 1.1 2.5
588 1.1 2.6
589 1.1 2.7
590 1.1 2.8
591 1.1 2.9
592 1.1 3.0
593 1.1 3.1
594 1.1 3.2
595 1.1 3.3
596 1.1 3.4
597 1.1 3.5
598 1.1 3.6
599 1.1 3.7
600 1.1 3.8
601 1.1 3.9
602 1.1 4.0
603 1.1 4.1
604 1.1 4.2
605 1.1 4.3
606 1.1 4.4
607 1.1 4.5
608 1.1 4.6
609 1.1 4.7
610 1.1 4.8
611 1.1 4.9
612 1.1 5.0
613 1.2 0.0
614 1.2 0.1
615 1.2 0.2
616 1.2 0.3
617 1.2 0.4
618 1.2 0.5
619 1.2 0.6
620 1.2 0.7
621 1.2 0.8
622 1.2 0.9
623 1.2 1.0
624 1.2 1.1
625 1.2 1.2
626 1.2 1.3
627 1.2 1.4
628 1.2 1.5
629 1.2 1.6
630 1.2 1.7
631 1.2 1.8
632 1.2 1.9
633 1.2 2.0
634 1.2 2.1
635 1.2 2.2
636 1.2 2.3
637 1.2 2.4
638 1.2 2.5
639 1.2 2.6
640 1.2 2.7
641 1.2 2.8
642 1.2 2.9
643 1.2 3.0
644 1.2 3.1
645 1.2 3.2
646 1.2 3.3
647 1.2 3.4
648 1.2 3.5
649 1.2 3.6
650 1.2 3.7
651 1.2 3.8
652 1.2 3.9
653 1.2 4.0
654 1.2 4.1
655 1.2 4.2
656 1.2 4.3
657 1.2 4.4
658 1.2 4.5
659 1.2 4.6
660 1.2 4.7
661 1.2 4.8
662 1.2 4.9
663 1.2 5.0
664 1.3 0.0
665 1.3 0.1
666 1.3 0.2
667 1.3 0.3
668 1.3 0.4
669 1.3 0.5
670 1.3 0.6
671 1.3 0.7
672 1.3 0.8
673 1.3 0.9
674 1.3 1.0
675 1.3 1.1
676 1.3 1.2
677 1.3 1.3
678 1.3 1.4
679 1.3 1.5
680 1.3 1.6
681 1.3 1.7
682 1.3 1.8
683 1.3 1.9
684 1.3 2.0
685 1.3 2.1
686 1.3 2.2
687 1.3 2.3
688 1.3 2.4
689 1.3 2.5
690 1.3 2.6
691 1.3 2.7
692 1.3 2.8
693 1.3 2.9
694 1.3 3.0
695 1.3 3.1
696 1.3 3.2
697 1.3 3.3
698 1.3 3.4
699 1.3 3.5
700 1.3 3.6
701 1.3 3.7
702 1.3 3.8
703 1.3 3.9
704 1.3 4.0
705 1.3 4.1
706 1.3 4.2
707 1.3 4.3
708 1.3 4.4
709 1.3 4.5
710 1.3 4.6
711 1.3 4.7
712 1.3 4.8
713 1.3 4.9
714 1.3 5.0
715 1.4 0.0
716 1.4 0.1
717 1.4 0.2
718 1.4 0.3
719 1.4 0.4
720 1.4 0.5
721 1.4 0.6
722 1.4 0.7
723 1.4 0.8
724 1.4 0.9
725 1.4 1.0
726 1.4 1.1
727 1.4 1.2
728 1.4 1.3
729 1.4 1.4
730 1.4 1.5
731 1.4 1.6
732 1.4 1.7
733 1.4 1.8
734 1.4 1.9
735 1.4 2.0
736 1.4 2.1
737 1.4 2.2
738 1.4 2.3
739 1.4 2.4
740 1.4 2.5
741 1.4 2.6
742 1.4 2.7
743 1.4 2.8
744 1.4 2.9
745 1.4 3.0
746 1.4 3.1
747 1.4 3.2
748 1.4 3.3
749 1.4 3.4
750 1.4 3.5
751 1.4 3.6
752 1.4 3.7
753 1.4 3.8
754 1.4 3.9
755 1.4 4.0
756 1.4 4.1
757 1.4 4.2
758 1.4 4.3
759 1.4 4.4
760 1.4 4.5
761 1.4 4.6
762 1.4 4.7
763 1.4 4.8
764 1.4 4.9
765 1.4 5.0
766 1.5 0.0
767 1.5 0.1
768 1.5 0.2
769 1.5 0.3
770 1.5 0.4
771 1.5 0.5
772 1.5 0.6
773 1.5 0.7
774 1.5 0.8
775 1.5 0.9
776 1.5 1.0
777 1.5 1.1
778 1.5 1.2
779 1.5 1.3
780 1.5 1.4
781 1.5 1.5
782 1.5 1.6
783 1.5 1.7
784 1.5 1.8
785 1.5 1.9
786 1.5 2.0
787 1.5 2.1
788 1.5 2.2
789 1.5 2.3
790 1.5 2.4
791 1.5 2.5
792 1.5 2.6
793 1.5 2.7
794 1.5 2.8
795 1.5 2.9
796 1.5 3.0
797 1.5 3.1
798 1.5 3.2
799 1.5 3.3
800 1.5 3.4
801 1.5 3.5
802 1.5 3.6
803 1.5 3.7
804 1.5 3.8
805 1.5 3.9
806 1.5 4.0
807 1.5 4.1
808 1.5 4.2
809 1.5 4.3
810 1.5 4.4
811 1.5 4.5
812 1.5 4.6
813 1.5 4.7
814 1.5 4.8
815 1.5 4.9
816 1.5 5.0
817 1.6 0.0
818 1.6 0.1
819 1.6 0.2
820 1.6 0.3
821 1.6 0.4
822 1.6 0.5
823 1.6 0.6
824 1.6 0.7
825 1.6 0.8
826 1.6 0.9
827 1.6 1.0
828 1.6 1.1
829 1.6 1.2
830 1.6 1.3
831 1.6 1.4
832 1.6 1.5
833 1.6 1.6
834 1.6 1.7
835 1.6 1.8
836 1.6 1.9
837 1.6 2.0
838 1.6 2.1
839 1.6 2.2
840 1.6 2.3
841 1.6 2.4
842 1.6 2.5
843 1.6 2.6
844 1.6 2.7
845 1.6 2.8
846 1.6 2.9
847 1.6 3.0
848 1.6 3.1
849 1.6 3.2
850 1.6 3.3
851 1.6 3.4
852 1.6 3.5
853 1.6 3.6
854 1.6 3.7
855 1.6 3.8
856 1.6 3.9
857 1.6 4.0
858 1.6 4.1
859 1.6 4.2
860 1.6 4.3
861 1.6 4.4
862 1.6 4.5
863 1.6 4.6
864 1.6 4.7
865 1.6 4.8
866 1.6 4.9
867 1.6 5.0
868 1.7 0.0
869 1.7 0.1
870 1.7 0.2
871 1.7 0.3
872 1.7 0.4
873 1.7 0.5
874 1.7 0.6
875 1.7 0.7
876 1.7 0.8
877 1.7 0.9
878 1.7 1.0
879 1.7 1.1
880 1.7 1.2
881 1.7 1.3
882 1.7 1.4
883 1.7 1.5
884 1.7 1.6
885 1.7 1.7
886 1.7 1.8
887 1.7 1.9
888 1.7 2.0
889 1.7 2.1
890 1.7 2.2
891 1.7 2.3
892 1.7 2.4
893 1.7 2.5
894 1.7 2.6
895 1.7 2.7
896 1.7 2.8
897 1.7 2.9
898 1.7 3.0
899 1.7 3.1
900 1.7 3.2
901 1.7 3.3
902 1.7 3.4
903 1.7 3.5
904 1.7 3.6
905 1.7 3.7
906 1.7 3.8
907 1.7 3.9
908 1.7 4.0
909 1.7 4.1
910 1.7 4.2
911 1.7 4.3
912 1.7 4.4
913 1.7 4.5
914 1.7 4.6
915 1.7 4.7
916 1.7 4.8
917 1.7 4.9
918 1.7 5.0
919 1.8 0.0
920 1.8 0.1
921 1.8 0.2
922 1.8 0.3
923 1.8 0.4
924 1.8 0.5
925 1.8 0.6
926 1.8 0.7
927 1.8 0.8
928 1.8 0.9
929 1.8 1.0
930 1.8 1.1
931 1.8 1.2
932 1.8 1.3
933 1.8 1.4
934 1.8 1.5
935 1.8 1.6
936 1.8 1.7
937 1.8 1.8
938 1.8 1.9
939 1.8 2.0
940 1.8 2.1
941 1.8 2.2
942 1.8 2.3
943 1.8 2.4
944 1.8 2.5
945 1.8 2.6
946 1.8 2.7
947 1.8 2.8
948 1.8 2.9
949 1.8 3.0
950 1.8 3.1
951 1.8 3.2
952 1.8 3.3
953 1.8 3.4
954 1.8 3.5
955 1.8 3.6
956 1.8 3.7
957 1.8 3.8
958 1.8 3.9
959 1.8 4.0
960 1.8 4.1
961 1.8 4.2
962 1.8 4.3
963 1.8 4.4
964 1.8 4.5
965 1.8 4.6
966 1.8 4.7
967 1.8 4.8
968 1.8 4.9
969 1.8 5.0
970 1.9 0.0
971 1.9 0.1
972 1.9 0.2
973 1.9 0.3
974 1.9 0.4
975 1.9 0.5
976 1.9 0.6
977 1.9 0.7
978 1.9 0.8
979 1.9 0.9
980 1.9 1.0
981 1.9 1.1
982 1.9 1.2
983 1.9 1.3
984 1.9 1.4
985 1.9 1.5
986 1.9 1.6
987 1.9 1.7
988 1.9 1.8
989 1.9 1.9
990 1.9 2.0
991 1.9 2.1
992 1.9 2.2
993 1.9 2.3
994 1.9 2.4
995 1.9 2.5
996 1.9 2.6
997 1.9 2.7
998 1.9 2.8
999 1.9 2.9
1000 1.9 3.0
1001 1.9 3.1
1002 1.9 3.2
1003 1.9 3.3
1004 1.9 3.4
1005 1.9 3.5
1006 1.9 3.6
1007 1.9 3.7
1008 1.9 3.8
1009 1.9 3.9
1010 1.9 4.0
1011 1.9 4.1
1012 1.9 4.2
1013 1.9 4.3
1014 1.9 4.4
1015 1.9 4.5
1016 1.9 4.6
1017 1.9 4.7
1018 1.9 4.8
1019 1.9 4.9
1020 1.9 5.0
1021 2.0 0.0
1022 2.0 0.1
1023 2.0 0.2
1024 2.0 0.3
1025 2.0 0.4
1026 2.0 0.5
1027 2.0 0.6
1028 2.0 0.7
1029 2.0 0.8
1030 2.0 0.9
1031 2.0 1.0
1032 2.0 1.1
1033 2.0 1.2
1034 2.0 1.3
1035 2.0 1.4
1036 2.0 1.5
1037 2.0 1.6
1038 2.0 1.7
1039 2.0 1.8
1040 2.0 1.9
1041 2.0 2.0
1042 2.0 2.1
1043 2.0 2.2
1044 2.0 2.3
1045 2.0 2.4
1046 2.0 2.5
1047 2.0 2.6
1048 2.0 2.7
1049 2.0 2.8
1050 2.0 2.9
1051 2.0 3.0
1052 2.0 3.1
1053 2.0 3.2
1054 2.0 3.3
1055 2.0 3.4
1056 2.0 3.5
1057 2.0 3.6
1058 2.0 3.7
1059 2.0 3.8
1060 2.0 3.9
1061 2.0 4.0
1062 2.0 4.1
1063 2.0 4.2
1064 2.0 4.3
1065 2.0 4.4
1066 2.0 4.5
1067 2.0 4.6
1068 2.0 4.7
1069 2.0 4.8
1070 2.0 4.9
1071 2.0 5.0
1072 2.1 0.0
1073 2.1 0.1
1074 2.1 0.2
1075 2.1 0.3
1076 2.1 0.4
1077 2.1 0.5
1078 2.1 0.6
1079 2.1 0.7
1080 2.1 0.8
1081 2.1 0.9
1082 2.1 1.0
1083 2.1 1.1
1084 2.1 1.2
1085 2.1 1.3
1086 2.1 1.4
1087 2.1 1.5
1088 2.1 1.6
1089 2.1 1.7
1090 2.1 1.8
1091 2.1 1.9
1092 2.1 2.0
1093 2.1 2.1
1094 2.1 2.2
1095 2.1 2.3
1096 2.1 2.4
1097 2.1 2.5
1098 2.1 2.6
1099 2.1 2.7
1100 2.1 2.8
1101 2.1 2.9
1102 2.1 3.0
1103 2.1 3.1
1104 2.1 3.2
1105 2.1 3.3
1106 2.1 3.4
1107 2.1 3.5
1108 2.1 3.6
1109 2.1 3.7
1110 2.1 3.8
1111 2.1 3.9
1112 2.1 4.0
1113 2.1 4.1
1114 2.1 4.2
1115 2.1 4.3
1116 2.1 4.4
1117 2.1 4.5
1118 2.1 4.6
1119 2.1 4.7
1120 2.1 4.8
1121 2.1 4.9
1122 2.1 5.0
1123 2.2 0.0
1124 2.2 0.1
1125 2.2 0.2
1126 2.2 0.3
1127 2.2 0.4
1128 2.2 0.5
1129 2.2 0.6
1130 2.2 0.7
1131 2.2 0.8
1132 2.2 0.9
1133 2.2 1.0
1134 2.2 1.1
1135 2.2 1.2
1136 2.2 1.3
1137 2.2 1.4
1138 2.2 1.5
1139 2.2 1.6
1140 2.2 1.7
1141 2.2 1.8
1142 2.2 1.9
1143 2.2 2.0
1144 2.2 2.1
1145 2.2 2.2
1146 2.2 2.3
1147 2.2 2.4
1148 2.2 2.5
1149 2.2 2.6
1150 2.2 2.7
1151 2.2 2.8
1152 2.2 2.9
1153 2.2 3.0
1154 2.2 3.1
1155 2.2 3.2
1156 2.2 3.3
1157 2.2 3.4
1158 2.2 3.5
1159 2.2 3.6
1160 2.2 3.7
1161 2.2 3.8
1162 2.2 3.9
1163 2.2 4.0
1164 2.2 4.1
1165 2.2 4.2
1166 2.2 4.3
1167 2.2 4.4
1168 2.2 4.5
1169 2.2 4.6
1170 2.2 4.7
1171 2.2 4.8
1172 2.2 4.9
1173 2.2 5.0
1174 2.3 0.0
1175 2.3 0.1
1176 2.3 0.2
1177 2.3 0.3
1178 2.3 0.4
1179 2.3 0.5
1180 2.3 0.6
1181 2.3 0.7
1182 2.3 0.8
1183 2.3 0.9
1184 2.3 1.0
1185 2.3 1.1
1186 2.3 1.2
1187 2.3 1.3
1188 2.3 1.4
1189 2.3 1.5
1190 2.3 1.6
1191 2.3 1.7
1192 2.3 1.8
1193 2.3 1.9
1194 2.3 2.0
1195 2.3 2.1
1196 2.3 2.2
1197 2.3 2.3
1198 2.3 2.4
1199 2.3 2.5
1200 2.3 2.6
1201 2.3 2.7
1202 2.3 2.8
1203 2.3 2.9
1204 2.3 3.0
1205 2.3 3.1
1206 2.3 3.2
1207 2.3 3.3
1208 2.3 3.4
1209 2.3 3.5
1210 2.3 3.6
1211 2.3 3.7
1212 2.3 3.8
1213 2.3 3.9
1214 2.3 4.0
1215 2.3 4.1
1216 2.3 4.2
1217 2.3 4.3
1218 2.3 4.4
1219 2.3 4.5
1220 2.3 4.6
1221 2.3 4.7
1222 2.3 4.8
1223 2.3 4.9
1224 2.3 5.0
1225 2.4 0.0
1226 2.4 0.1
1227 2.4 0.2
1228 2.4 0.3
1229 2.4 0.4
1230 2.4 0.5
1231 2.4 0.6
1232 2.4 0.7
1233 2.4 0.8
1234 2.4 0.9
1235 2.4 1.0
1236 2.4 1.1
1237 2.4 1.2
1238 2.4 1.3
1239 2.4 1.4
1240 2.4 1.5
1241 2.4 1.6
1242 2.4 1.7
1243 2.4 1.8
1244 2.4 1.9
1245 2.4 2.0
1246 2.4 2.1
1247 2.4 2.2
1248 2.4 2.3
1249 2.4 2.4
1250 2.4 2.5
1251 2.4 2.6
1252 2.4 2.7
1253 2.4 2.8
1254 2.4 2.9
1255 2.4 3.0
1256 2.4 3.1
1257 2.4 3.2
1258 2.4 3.3
1259 2.4 3.4
1260 2.4 3.5
1261 2.4 3.6
1262 2.4 3.7
1263 2.4 3.8
1264 2.4 3.9
1265 2.4 4.0
1266 2.4 4.1
1267 2.4 4.2
1268 2.4 4.3
1269 2.4 4.4
1270 2.4 4.5
1271 2.4 4.6
1272 2.4 4.7
1273 2.4 4.8
1274 2.4 4.9
1275 2.4 5.0
1276 2.5 0.0
1277 2.5 0.1
1278 2.5 0.2
1279 2.5 0.3
1280 2.5 0.4
1281 2.5 0.5
1282 2.5 0.6
1283 2.5 0.7
1284 2.5 0.8
1285 2.5 0.9
1286 2.5 1.0
1287 2.5 1.1
1288 2.5 1.2
1289 2.5 1.3
1290 2.5 1.4
1291 2.5 1.5
1292 2.5 1.6
1293 2.5 1.7
1294 2.5 1.8
1295 2.5 1.9
1296 2.5 2.0
1297 2.5 2.1
1298 2.5 2.2
1299 2.5 2.3
1300 2.5 2.4
1301 2.5 2.5
1302 2.5 2.6
1303 2.5 2.7
1304 2.5 2.8
1305 2.5 2.9
1306 2.5 3.0
1307 2.5 3.1
1308 2.5 3.2
1309 2.5 3.3
1310 2.5 3.4
1311 2.5 3.5
1312 2.5 3.6
1313 2.5 3.7
1314 2.5 3.8
1315 2.5 3.9
1316 2.5 4.0
1317 2.5 4.1
1318 2.5 4.2
1319 2.5 4.3
1320 2.5 4.4
1321 2.5 4.5
1322 2.5 4.6
1323 2.5 4.7
1324 2.5 4.8
1325 2.5 4.9
1326 2.5 5.0
1327 2.6 0.0
1328 2.6 0.1
1329 2.6 0.2
1330 2.6 0.3
1331 2.6 0.4
1332 2.6 0.5
1333 2.6 0.6
1334 2.6 0.7
1335 2.6 0.8
1336 2.6 0.9
1337 2.6 1.0
1338 2.6 1.1
1339 2.6 1.2
1340 2.6 1.3
1341 2.6 1.4
1342 2.6 1.5
1343 2.6 1.6
1344 2.6 1.7
1345 2.6 1.8
1346 2.6 1.9
1347 2.6 2.0
1348 2.6 2.1
1349 2.6 2.2
1350 2.6 2.3
1351 2.6 2.4
1352 2.6 2.5
1353 2.6 2.6
1354 2.6 2.7
1355 2.6 2.8
1356 2.6 2.9
1357 2.6 3.0
1358 2.6 3.1
1359 2.6 3.2
1360 2.6 3.3
1361 2.6 3.4
1362 2.6 3.5
1363 2.6 3.6
1364 2.6 3.7
1365 2.6 3.8
1366 2.6 3.9
1367 2.6 4.0
1368 2.6 4.1
1369 2.6 4.2
1370 2.6 4.3
1371 2.6 4.4
1372 2.6 4.5
1373 2.6 4.6
1374 2.6 4.7
1375 2.6 4.8
1376 2.6 4.9
1377 2.6 5.0
1378 2.7 0.0
1379 2.7 0.1
1380 2.7 0.2
1381 2.7 0.3
1382 2.7 0.4
1383 2.7 0.5
1384 2.7 0.6
1385 2.7 0.7
1386 2.7 0.8
1387 2.7 0.9
1388 2.7 1.0
1389 2.7 1.1
1390 2.7 1.2
1391 2.7 1.3
1392 2.7 1.4
1393 2.7 1.5
1394 2.7 1.6
1395 2.7 1.7
1396 2.7 1.8
1397 2.7 1.9
1398 2.7 2.0
1399 2.7 2.1
1400 2.7 2.2
1401 2.7 2.3
1402 2.7 2.4
1403 2.7 2.5
1404 2.7 2.6
1405 2.7 2.7
1406 2.7 2.8
1407 2.7 2.9
1408 2.7 3.0
1409 2.7 3.1
1410 2.7 3.2
1411 2.7 3.3
1412 2.7 3.4
1413 2.7 3.5
1414 2.7 3.6
1415 2.7 3.7
1416 2.7 3.8
1417 2.7 3.9
1418 2.7 4.0
1419 2.7 4.1
1420 2.7 4.2
1421 2.7 4.3
1422 2.7 4.4
1423 2.7 4.5
1424 2.7 4.6
1425 2.7 4.7
1426 2.7 4.8
1427 2.7 4.9
1428 2.7 5.0
1429 2.8 0.0
1430 2.8 0.1
1431 2.8 0.2
1432 2.8 0.3
1433 2.8 0.4
1434 2.8 0.5
1435 2.8 0.6
1436 2.8 0.7
1437 2.8 0.8
1438 2.8 0.9
1439 2.8 1.0
1440 2.8 1.1
1441 2.8 1.2
1442 2.8 1.3
1443 2.8 1.4
1444 2.8 1.5
1445 2.8 1.6
1446 2.8 1.7
1447 2.8 1.8
1448 2.8 1.9
1449 2.8 2.0
1450 2.8 2.1
1451 2.8 2.2
1452 2.8 2.3
1453 2.8 2.4
1454 2.8 2.5
1455 2.8 2.6
1456 2.8 2.7
1457 2.8 2.8
1458 2.8 2.9
1459 2.8 3.0
1460 2.8 3.1
1461 2.8 3.2
1462 2.8 3.3
1463 2.8 3.4
1464 2.8 3.5
1465 2.8 3.6
1466 2.8 3.7
1467 2.8 3.8
1468 2.8 3.9
1469 2.8 4.0
1470 2.8 4.1
1471 2.8 4.2
1472 2.8 4.3
1473 2.8 4.4
1474 2.8 4.5
1475 2.8 4.6
1476 2.8 4.7
1477 2.8 4.8
1478 2.8 4.9
1479 2.8 5.0
1480 2.9 0.0
1481 2.9 0.1
1482 2.9 0.2
1483 2.9 0.3
1484 2.9 0.4
1485 2.9 0.5
1486 2.9 0.6
1487 2.9 0.7
1488 2.9 0.8
1489 2.9 0.9
1490 2.9 1.0
1491 2.9 1.1
1492 2.9 1.2
1493 2.9 1.3
1494 2.9 1.4
1495 2.9 1.5
1496 2.9 1.6
1497 2.9 1.7
1498 2.9 1.8
1499 2.9 1.9
1500 2.9 2.0
1501 2.9 2.1
1502 2.9 2.2
1503 2.9 2.3
1504 2.9 2.4
1505 2.9 2.5
1506 2.9 2.6
1507 2.9 2.7
1508 2.9 2.8
1509 2.9 2.9
1510 2.9 3.0
1511 2.9 3.1
1512 2.9 3.2
1513 2.9 3.3
1514 2.9 3.4
1515 2.9 3.5
1516 2.9 3.6
1517 2.9 3.7
1518 2.9 3.8
1519 2.9 3.9
1520 2.9 4.0
1521 2.9 4.1
1522 2.9 4.2
1523 2.9 4.3
1524 2.9 4.4
1525 2.9 4.5
1526 2.9 4.6
1527 2.9 4.7
1528 2.9 4.8
1529 2.9 4.9
1530 2.9 5.0
1531 3.0 0.0
1532 3.0 0.1
1533 3.0 0.2
1534 3.0 0.3
1535 3.0 0.4
1536 3.0 0.5
1537 3.0 0.6
1538 3.0 0.7
1539 3.0 0.8
1540 3.0 0.9
1541 3.0 1.0
1542 3.0 1.1
1543 3.0 1.2
1544 3.0 1.3
1545 3.0 1.4
1546 3.0 1.5
1547 3.0 1.6
1548 3.0 1.7
1549 3.0 1.8
1550 3.0 1.9
1551 3.0 2.0
1552 3.0 2.1
1553 3.0 2.2
1554 3.0 2.3
1555 3.0 2.4
1556 3.0 2.5
1557 3.0 2.6
1558 3.0 2.7
1559 3.0 2.8
1560 3.0 2.9
1561 3.0 3.0
1562 3.0 3.1
1563 3.0 3.2
1564 3.0 3.3
1565 3.0 3.4
1566 3.0 3.5
1567 3.0 3.6
1568 3.0 3.7
1569 3.0 3.8
1570 3.0 3.9
1571 3.0 4.0
1572 3.0 4.1
1573 3.0 4.2
1574 3.0 4.3
1575 3.0 4.4
1576 3.0 4.5
1577 3.0 4.6
1578 3.0 4.7
1579 3.0 4.8
1580 3.0 4.9
1581 3.0 5.0
1582 3.1 0.0
1583 3.1 0.1
1584 3.1 0.2
1585 3.1 0.3
1586 3.1 0.4
1587 3.1 0.5
1588 3.1 0.6
1589 3.1 0.7
1590 3.1 0.8
1591 3.1 0.9
1592 3.1 1.0
1593 3.1 1.1
1594 3.1 1.2
1595 3.1 1.3
1596 3.1 1.4
1597 3.1 1.5
1598 3.1 1.6
1599 3.1 1.7
1600 3.1 1.8
1601 3.1 1.9
1602 3.1 2.0
1603 3.1 2.1
1604 3.1 2.2
1605 3.1 2.3
1606 3.1 2.4
1607 3.1 2.5
1608 3.1 2.6
1609 3.1 2.7
1610 3.1 2.8
1611 3.1 2.9
1612 3.1 3.0
1613 3.1 3.1
1614 3.1 3.2
1615 3.1 3.3
1616 3.1 3.4
1617 3.1 3.5
1618 3.1 3.6
1619 3.1 3.7
1620 3.1 3.8
1621 3.1 3.9
1622 3.1 4.0
1623 3.1 4.1
1624 3.1 4.2
1625 3.1 4.3
1626 3.1 4.4
1627 3.1 4.5
1628 3.1 4.6
1629 3.1 4.7
1630 3.1 4.8
1631 3.1 4.9
1632 3.1 5.0
1633 3.2 0.0
1634 3.2 0.1
1635 3.2 0.2
1636 3.2 0.3
1637 3.2 0.4
1638 3.2 0.5
1639 3.2 0.6
1640 3.2 0.7
1641 3.2 0.8
1642 3.2 0.9
1643 3.2 1.0
1644 3.2 1.1
1645 3.2 1.2
1646 3.2 1.3
1647 3.2 1.4
1648 3.2 1.5
1649 3.2 1.6
1650 3.2 1.7
1651 3.2 1.8
1652 3.2 1.9
1653 3.2 2.0
1654 3.2 2.1
1655 3.2 2.2
1656 3.2 2.3
1657 3.2 2.4
1658 3.2 2.5
1659 3.2 2.6
1660 3.2 2.7
1661 3.2 2.8
1662 3.2 2.9
1663 3.2 3.0
1664 3.2 3.1
1665 3.2 3.2
1666 3.2 3.3
1667 3.2 3.4
1668 3.2 3.5
1669 3.2 3.6
1670 3.2 3.7
1671 3.2 3.8
1672 3.2 3.9
1673 3.2 4.0
1674 3.2 4.1
1675 3.2 4.2
1676 3.2 4.3
1677 3.2 4.4
1678 3.2 4.5
1679 3.2 4.6
1680 3.2 4.7
1681 3.2 4.8
1682 3.2 4.9
1683 3.2 5.0
1684 3.3 0.0
1685 3.3 0.1
1686 3.3 0.2
1687 3.3 0.3
1688 3.3 0.4
1689 3.3 0.5
1690 3.3 0.6
1691 3.3 0.7
1692 3.3 0.8
1693 3.3 0.9
1694 3.3 1.0
1695 3.3 1.1
1696 3.3 1.2
1697 3.3 1.3
1698 3.3 1.4
1699 3.3 1.5
1700 3.3 1.6
1701 3.3 1.7
1702 3.3 1.8
1703 3.3 1.9
1704 3.3 2.0
1705 3.3 2.1
1706 3.3 2.2
1707 3.3 2.3
1708 3.3 2.4
1709 3.3 2.5
1710 3.3 2.6
1711 3.3 2.7
1712 3.3 2.8
1713 3.3 2.9
1714 3.3 3.0
1715 3.3 3.1
1716 3.3 3.2
1717 3.3 3.3
1718 3.3 3.4
1719 3.3 3.5
1720 3.3 3.6
1721 3.3 3.7
1722 3.3 3.8
1723 3.3 3.9
1724 3.3 4.0
1725 3.3 4.1
1726 3.3 4.2
1727 3.3 4.3
1728 3.3 4.4
1729 3.3 4.5
1730 3.3 4.6
1731 3.3 4.7
1732 3.3 4.8
1733 3.3 4.9
1734 3.3 5.0
1735 3.4 0.0
1736 3.4 0.1
1737 3.4 0.2
1738 3.4 0.3
1739 3.4 0.4
1740 3.4 0.5
1741 3.4 0.6
1742 3.4 0.7
1743 3.4 0.8
1744 3.4 0.9
1745 3.4 1.0
1746 3.4 1.1
1747 3.4 1.2
1748 3.4 1.3
1749 3.4 1.4
1750 3.4 1.5
1751 3.4 1.6
1752 3.4 1.7
1753 3.4 1.8
1754 3.4 1.9
1755 3.4 2.0
1756 3.4 2.1
1757 3.4 2.2
1758 3.4 2.3
1759 3.4 2.4
1760 3.4 2.5
1761 3.4 2.6
1762 3.4 2.7
1763 3.4 2.8
1764 3.4 2.9
1765 3.4 3.0
1766 3.4 3.1
1767 3.4 3.2
1768 3.4 3.3
1769 3.4 3.4
1770 3.4 3.5
1771 3.4 3.6
1772 3.4 3.7
1773 3.4 3.8
1774 3.4 3.9
1775 3.4 4.0
1776 3.4 4.1
1777 3.4 4.2
1778 3.4 4.3
1779 3.4 4.4
1780 3.4 4.5
1781 3.4 4.6
1782 3.4 4.7
1783 3.4 4.8
1784 3.4 4.9
1785 3.4 5.0
1786 3.5 0.0
1787 3.5 0.1
1788 3.5 0.2
1789 3.5 0.3
1790 3.5 0.4
1791 3.5 0.5
1792 3.5 0.6
1793 3.5 0.7
1794 3.5 0.8
1795 3.5 0.9
1796 3.5 1.0
1797 3.5 1.1
1798 3.5 1.2
1799 3.5 1.3
1800 3.5 1.4
1801 3.5 1.5
1802 3.5 1.6
1803 3.5 1.7
1804 3.5 1.8
1805 3.5 1.9
1806 3.5 2.0
1807 3.5 2.1
1808 3.5 2.2
1809 3.5 2.3
1810 3.5 2.4
1811 3.5 2.5
1812 3.5 2.6
1813 3.5 2.7
1814 3.5 2.8
1815 3.5 2.9
1816 3.5 3.0
1817 3.5 3.1
1818 3.5 3.2
1819 3.5 3.3
1820 3.5 3.4
1821 3.5 3.5
1822 3.5 3.6
1823 3.5 3.7
1824 3.5 3.8
1825 3.5 3.9
1826 3.5 4.0
1827 3.5 4.1
1828 3.5 4.2
1829 3.5 4.3
1830 3.5 4.4
1831 3.5 4.5
1832 3.5 4.6
1833 3.5 4.7
1834 3.5 4.8
1835 3.5 4.9
1836 3.5 5.0
1837 3.6 0.0
1838 3.6 0.1
1839 3.6 0.2
1840 3.6 0.3
1841 3.6 0.4
1842 3.6 0.5
1843 3.6 0.6
1844 3.6 0.7
1845 3.6 0.8
1846 3.6 0.9
1847 3.6 1.0
1848 3.6 1.1
1849 3.6 1.2
1850 3.6 1.3
1851 3.6 1.4
1852 3.6 1.5
1853 3.6 1.6
1854 3.6 1.7
1855 3.6 1.8
1856 3.6 1.9
1857 3.6 2.0
1858 3.6 2.1
1859 3.6 2.2
1860 3.6 2.3
1861 3.6 2.4
1862 3.6 2.5
1863 3.6 2.6
1864 3.6 2.7
1865 3.6 2.8
1866 3.6 2.9
1867 3.6 3.0
1868 3.6 3.1
1869 3.6 3.2
1870 3.6 3.3
1871 3.6 3.4
1872 3.6 3.5
1873 3.6 3.6
1874 3.6 3.7
1875 3.6 3.8
1876 3.6 3.9
1877 3.6 4.0
1878 3.6 4.1
1879 3.6 4.2
1880 3.6 4.3
1881 3.6 4.4
1882 3.6 4.5
1883 3.6 4.6
1884 3.6 4.7
1885 3.6 4.8
1886 3.6 4.9
1887 3.6 5.0
1888 3.7 0.0
1889 3.7 0.1
1890 3.7 0.2
1891 3.7 0.3
1892 3.7 0.4
1893 3.7 0.5
1894 3.7 0.6
1895 3.7 0.7
1896 3.7 0.8
1897 3.7 0.9
1898 3.7 1.0
1899 3.7 1.1
1900 3.7 1.2
1901 3.7 1.3
1902 3.7 1.4
1903 3.7 1.5
1904 3.7 1.6
1905 3.7 1.7
1906 3.7 1.8
1907 3.7 1.9
1908 3.7 2.0
1909 3.7 2.1
1910 3.7 2.2
1911 3.7 2.3
1912 3.7 2.4
1913 3.7 2.5
1914 3.7 2.6
1915 3.7 2.7
1916 3.7 2.8
1917 3.7 2.9
1918 3.7 3.0
1919 3.7 3.1
1920 3.7 3.2
1921 3.7 3.3
1922 3.7 3.4
1923 3.7 3.5
1924 3.7 3.6
1925 3.7 3.7
1926 3.7 3.8
1927 3.7 3.9
1928 3.7 4.0
1929 3.7 4.1
1930 3.7 4.2
1931 3.7 4.3
1932 3.7 4.4
1933 3.7 4.5
1934 3.7 4.6
1935 3.7 4.7
1936 3.7 4.8
1937 3.7 4.9
1938 3.7 5.0
1939 3.8 0.0
1940 3.8 0.1
1941 3.8 0.2
1942 3.8 0.3
1943 3.8 0.4
1944 3.8 0.5
1945 3.8 0.6
1946 3.8 0.7
1947 3.8 0.8
1948 3.8 0.9
1949 3.8 1.0
1950 3.8 1.1
1951 3.8 1.2
1952 3.8 1.3
1953 3.8 1.4
1954 3.8 1.5
1955 3.8 1.6
1956 3.8 1.7
1957 3.8 1.8
1958 3.8 1.9
1959 3.8 2.0
1960 3.8 2.1
1961 3.8 2.2
1962 3.8 2.3
1963 3.8 2.4
1964 3.8 2.5
1965 3.8 2.6
1966 3.8 2.7
1967 3.8 2.8
1968 3.8 2.9
1969 3.8 3.0
1970 3.8 3.1
1971 3.8 3.2
1972 3.8 3.3
1973 3.8 3.4
1974 3.8 3.5
1975 3.8 3.6
1976 3.8 3.7
1977 3.8 3.8
1978 3.8 3.9
1979 3.8 4.0
1980 3.8 4.1
1981 3.8 4.2
1982 3.8 4.3
1983 3.8 4.4
1984 3.8 4.5
1985 3.8 4.6
1986 3.8 4.7
1987 3.8 4.8
1988 3.8 4.9
1989 3.8 5.0
1990 3.9 0.0
1991 3.9 0.1
1992 3.9 0.2
1993 3.9 0.3
1994 3.9 0.4
1995 3.9 0.5
1996 3.9 0.6
1997 3.9 0.7
1998 3.9 0.8
1999 3.9 0.9
2000 3.9 1.0
2001 3.9 1.1
2002 3.9 1.2
2003 3.9 1.3
2004 3.9 1.4
2005 3.9 1.5
2006 3.9 1.6
2007 3.9 1.7
2008 3.9 1.8
2009 3.9 1.9
2010 3.9 2.0
2011 3.9 2.1
2012 3.9 2.2
2013 3.9 2.3
2014 3.9 2.4
2015 3.9 2.5
2016 3.9 2.6
2017 3.9 2.7
2018 3.9 2.8
2019 3.9 2.9
2020 3.9 3.0
2021 3.9 3.1
2022 3.9 3.2
2023 3.9 3.3
2024 3.9 3.4
2025 3.9 3.5
2026 3.9 3.6
2027 3.9 3.7
2028 3.9 3.8
2029 3.9 3.9
2030 3.9 4.0
2031 3.9 4.1
2032 3.9 4.2
2033 3.9 4.3
2034 3.9 4.4
2035 3.9 4.5
2036 3.9 4.6
2037 3.9 4.7
2038 3.9 4.8
2039 3.9 4.9
2040 3.9 5.0
2041 4.0 0.0
2042 4.0 0.1
2043 4.0 0.2
2044 4.0 0.3
2045 4.0 0.4
2046 4.0 0.5
2047 4.0 0.6
2048 4.0 0.7
2049 4.0 0.8
2050 4.0 0.9
2051 4.0 1.0
2052 4.0 1.1
2053 4.0 1.2
2054 4.0 1.3
2055 4.0 1.4
2056 4.0 1.5
2057 4.0 1.6
2058 4.0 1.7
2059 4.0 1.8
2060 4.0 1.9
2061 4.0 2.0
2062 4.0 2.1
2063 4.0 2.2
2064 4.0 2.3
2065 4.0 2.4
2066 4.0 2.5
2067 4.0 2.6
2068 4.0 2.7
2069 4.0 2.8
2070 4.0 2.9
2071 4.0 3.0
2072 4.0 3.1
2073 4.0 3.2
2074 4.0 3.3
2075 4.0 3.4
2076 4.0 3.5
2077 4.0 3.6
2078 4.0 3.7
2079 4.0 3.8
2080 4.0 3.9
2081 4.0 4.0
2082 4.0 4.1
2083 4.0 4.2
2084 4.0 4.3
2085 4.0 4.4
2086 4.0 4.5
2087 4.0 4.6
2088 4.0 4.7
2089 4.0 4.8
2090 4.0 4.9
2091 4.0 5.0
2092 4.1 0.0
2093 4.1 0.1
2094 4.1 0.2
2095 4.1 0.3
2096 4.1 0.4
2097 4.1 0.5
2098 4.1 0.6
2099 4.1 0.7
2100 4.1 0.8
2101 4.1 0.9
2102 4.1 1.0
2103 4.1 1.1
2104 4.1 1.2
2105 4.1 1.3
2106 4.1 1.4
2107 4.1 1.5
2108 4.1 1.6
2109 4.1 1.7
2110 4.1 1.8
2111 4.1 1.9
2112 4.1 2.0
2113 4.1 2.1
2114 4.1 2.2
2115 4.1 2.3
2116 4.1 2.4
2117 4.1 2.5
2118 4.1 2.6
2119 4.1 2.7
2120 4.1 2.8
2121 4.1 2.9
2122 4.1 3.0
2123 4.1 3.1
2124 4.1 3.2
2125 4.1 3.3
2126 4.1 3.4
2127 4.1 3.5
2128 4.1 3.6
2129 4.1 3.7
2130 4.1 3.8
2131 4.1 3.9
2132 4.1 4.0
2133 4.1 4.1
2134 4.1 4.2
2135 4.1 4.3
2136 4.1 4.4
2137 4.1 4.5
2138 4.1 4.6
2139 4.1 4.7
2140 4.1 4.8
2141 4.1 4.9
2142 4.1 5.0
2143 4.2 0.0
2144 4.2 0.1
2145 4.2 0.2
2146 4.2 0.3
2147 4.2 0.4
2148 4.2 0.5
2149 4.2 0.6
2150 4.2 0.7
2151 4.2 0.8
2152 4.2 0.9
2153 4.2 1.0
2154 4.2 1.1
2155 4.2 1.2
2156 4.2 1.3
2157 4.2 1.4
2158 4.2 1.5
2159 4.2 1.6
2160 4.2 1.7
2161 4.2 1.8
2162 4.2 1.9
2163 4.2 2.0
2164 4.2 2.1
2165 4.2 2.2
2166 4.2 2.3
2167 4.2 2.4
2168 4.2 2.5
2169 4.2 2.6
2170 4.2 2.7
2171 4.2 2.8
2172 4.2 2.9
2173 4.2 3.0
2174 4.2 3.1
2175 4.2 3.2
2176 4.2 3.3
2177 4.2 3.4
2178 4.2 3.5
2179 4.2 3.6
2180 4.2 3.7
2181 4.2 3.8
2182 4.2 3.9
2183 4.2 4.0
2184 4.2 4.1
2185 4.2 4.2
2186 4.2 4.3
2187 4.2 4.4
2188 4.2 4.5
2189 4.2 4.6
2190 4.2 4.7
2191 4.2 4.8
2192 4.2 4.9
2193 4.2 5.0
2194 4.3 0.0
2195 4.3 0.1
2196 4.3 0.2
2197 4.3 0.3
2198 4.3 0.4
2199 4.3 0.5
2200 4.3 0.6
2201 4.3 0.7
2202 4.3 0.8
2203 4.3 0.9
2204 4.3 1.0
2205 4.3 1.1
2206 4.3 1.2
2207 4.3 1.3
2208 4.3 1.4
2209 4.3 1.5
2210 4.3 1.6
2211 4.3 1.7
2212 4.3 1.8
2213 4.3 1.9
2214 4.3 2.0
2215 4.3 2.1
2216 4.3 2.2
2217 4.3 2.3
2218 4.3 2.4
2219 4.3 2.5
2220 4.3 2.6
2221 4.3 2.7
2222 4.3 2.8
2223 4.3 2.9
2224 4.3 3.0
2225 4.3 3.1
2226 4.3 3.2
2227 4.3 3.3
2228 4.3 3.4
2229 4.3 3.5
2230 4.3 3.6
2231 4.3 3.7
2232 4.3 3.8
2233 4.3 3.9
2234 4.3 4.0
2235 4.3 4.1
2236 4.3 4.2
2237 4.3 4.3
2238 4.3 4.4
2239 4.3 4.5
2240 4.3 4.6
2241 4.3 4.7
2242 4.3 4.8
2243 4.3 4.9
2244 4.3 5.0
2245 4.4 0.0
2246 4.4 0.1
2247 4.4 0.2
2248 4.4 0.3
2249 4.4 0.4
2250 4.4 0.5
2251 4.4 0.6
2252 4.4 0.7
2253 4.4 0.8
2254 4.4 0.9
2255 4.4 1.0
2256 4.4 1.1
2257 4.4 1.2
2258 4.4 1.3
2259 4.4 1.4
2260 4.4 1.5
2261 4.4 1.6
2262 4.4 1.7
2263 4.4 1.8
2264 4.4 1.9
2265 4.4 2.0
2266 4.4 2.1
2267 4.4 2.2
2268 4.4 2.3
2269 4.4 2.4
2270 4.4 2.5
2271 4.4 2.6
2272 4.4 2.7
2273 4.4 2.8
2274 4.4 2.9
2275 4.4 3.0
2276 4.4 3.1
2277 4.4 3.2
2278 4.4 3.3
2279 4.4 3.4
2280 4.4 3.5
2281 4.4 3.6
2282 4.4 3.7
2283 4.4 3.8
2284 4.4 3.9
2285 4.4 4.0
2286 4.4 4.1
2287 4.4 4.2
2288 4.4 4.3
2289 4.4 4.4
2290 4.4 4.5
2291 4.4 4.6
2292 4.4 4.7
2293 4.4 4.8
2294 4.4 4.9
2295 4.4 5.0
2296 4.5 0.0
2297 4.5 0.1
2298 4.5 0.2
2299 4.5 0.3
2300 4.5 0.4
2301 4.5 0.5
2302 4.5 0.6
2303 4.5 0.7
2304 4.5 0.8
2305 4.5 0.9
2306 4.5 1.0
2307 4.5 1.1
2308 4.5 1.2
2309 4.5 1.3
2310 4.5 1.4
2311 4.5 1.5
2312 4.5 1.6
2313 4.5 1.7
2314 4.5 1.8
2315 4.5 1.9
2316 4.5 2.0
2317 4.5 2.1
2318 4.5 2.2
2319 4.5 2.3
2320 4.5 2.4
2321 4.5 2.5
2322 4.5 2.6
2323 4.5 2.7
2324 4.5 2.8
2325 4.5 2.9
2326 4.5 3.0
2327 4.5 3.1
2328 4.5 3.2
2329 4.5 3.3
2330 4.5 3.4
2331 4.5 3.5
2332 4.5 3.6
2333 4.5 3.7
2334 4.5 3.8
2335 4.5 3.9
2336 4.5 4.0
2337 4.5 4.1
2338 4.5 4.2
2339 4.5 4.3
2340 4.5 4.4
2341 4.5 4.5
2342 4.5 4.6
2343 4.5 4.7
2344 4.5 4.8
2345 4.5 4.9
2346 4.5 5.0
2347 4.6 0.0
2348 4.6 0.1
2349 4.6 0.2
2350 4.6 0.3
2351 4.6 0.4
2352 4.6 0.5
2353 4.6 0.6
2354 4.6 0.7
2355 4.6 0.8
2356 4.6 0.9
2357 4.6 1.0
2358 4.6 1.1
2359 4.6 1.2
2360 4.6 1.3
2361 4.6 1.4
2362 4.6 1.5
2363 4.6 1.6
2364 4.6 1.7
2365 4.6 1.8
2366 4.6 1.9
2367 4.6 2.0
2368 4.6 2.1
2369 4.6 2.2
2370 4.6 2.3
2371 4.6 2.4
2372 4.6 2.5
2373 4.6 2.6
2374 4.6 2.7
2375 4.6 2.8
2376 4.6 2.9
2377 4.6 3.0
2378 4.6 3.1
2379 4.6 3.2
2380 4.6 3.3
2381 4.6 3.4
2382 4.6 3.5
2383 4.6 3.6
2384 4.6 3.7
2385 4.6 3.8
2386 4.6 3.9
2387 4.6 4.0
2388 4.6 4.1
2389 4.6 4.2
2390 4.6 4.3
2391 4.6 4.4
2392 4.6 4.5
2393 4.6 4.6
2394 4.6 4.7
2395 4.6 4.8
2396 4.6 4.9
2397 4.6 5.0
2398 4.7 0.0
2399 4.7 0.1
2400 4.7 0.2
2401 4.7 0.3
2402 4.7 0.4
2403 4.7 0.5
2404 4.7 0.6
2405 4.7 0.7
2406 4.7 0.8
2407 4.7 0.9
2408 4.7 1.0
2409 4.7 1.1
2410 4.7 1.2
2411 4.7 1.3
2412 4.7 1.4
2413 4.7 1.5
2414 4.7 1.6
2415 4.7 1.7
2416 4.7 1.8
2417 4.7 1.9
2418 4.7 2.0
2419 4.7 2.1
2420 4.7 2.2
2421 4.7 2.3
2422 4.7 2.4
2423 4.7 2.5
2424 4.7 2.6
2425 4.7 2.7
2426 4.7 2.8
2427 4.7 2.9
2428 4.7 3.0
2429 4.7 3.1
2430 4.7 3.2
2431 4.7 3.3
2432 4.7 3.4
2433 4.7 3.5
2434 4.7 3.6
2435 4.7 3.7
2436 4.7 3.8
2437 4.7 3.9
2438 4.7 4.0
2439 4.7 4.1
2440 4.7 4.2
2441 4.7 4.3
2442 4.7 4.4
2443 4.7 4.5
2444 4.7 4.6
2445 4.7 4.7
2446 4.7 4.8
2447 4.7 4.9
2448 4.7 5.0
2449 4.8 0.0
2450 4.8 0.1
2451 4.8 0.2
2452 4.8 0.3
2453 4.8 0.4
2454 4.8 0.5
2455 4.8 0.6
2456 4.8 0.7
2457 4.8 0.8
2458 4.8 0.9
2459 4.8 1.0
2460 4.8 1.1
2461 4.8 1.2
2462 4.8 1.3
2463 4.8 1.4
2464 4.8 1.5
2465 4.8 1.6
2466 4.8 1.7
2467 4.8 1.8
2468 4.8 1.9
2469 4.8 2.0
2470 4.8 2.1
2471 4.8 2.2
2472 4.8 2.3
2473 4.8 2.4
2474 4.8 2.5
2475 4.8 2.6
2476 4.8 2.7
2477 4.8 2.8
2478 4.8 2.9
2479 4.8 3.0
2480 4.8 3.1
2481 4.8 3.2
2482 4.8 3.3
2483 4.8 3.4
2484 4.8 3.5
2485 4.8 3.6
2486 4.8 3.7
2487 4.8 3.8
2488 4.8 3.9
2489 4.8 4.0
2490 4.8 4.1
2491 4.8 4.2
2492 4.8 4.3
2493 4.8 4.4
2494 4.8 4.5
2495 4.8 4.6
2496 4.8 4.7
2497 4.8 4.8
2498 4.8 4.9
2499 4.8 5.0
2500 4.9 0.0
2501 4.9 0.1
2502 4.9 0.2
2503 4.9 0.3
2504 4.9 0.4
2505 4.9 0.5
2506 4.9 0.6
2507 4.9 0.7
2508 4.9 0.8
2509 4.9 0.9
2510 4.9 1.0
2511 4.9 1.1
2512 4.9 1.2
2513 4.9 1.3
2514 4.9 1.4
2515 4.9 1.5
2516 4.9 1.6
2517 4.9 1.7
2518 4.9 1.8
2519 4.9 1.9
2520 4.9 2.0
2521 4.9 2.1
2522 4.9 2.2
2523 4.9 2.3
2524 4.9 2.4
2525 4.9 2.5
2526 4.9 2.6
2527 4.9 2.7
2528 4.9 2.8
2529 4.9 2.9
2530 4.9 3.0
2531 4.9 3.1
2532 4.9 3.2
2533 4.9 3.3
2534 4.9 3.4
2535 4.9 3.5
2536 4.9 3.6
2537 4.9 3.7
2538 4.9 3.8
2539 4.9 3.9
2540 4.9 4.0
2541 4.9 4.1
2542 4.9 4.2
2543 4.9 4.3
2544 4.9 4.4
2545 4.9 4.5
2546 4.9 4.6
2547 4.9 4.7
2548 4.9 4.8
2549 4.9 4.9
2550 4.9 5.0
2551 5.0 0.0
2552 5.0 0.1
2553 5.0 0.2
2554 5.0 0.3
2555 5.0 0.4
2556 5.0 0.5
2557 5.0 0.6
2558 5.0 0.7
2559 5.0 0.8
2560 5.0 0.9
2561 5.0 1.0
2562 5.0 1.1
2563 5.0 1.2
2564 5.0 1.3
2565 5.0 1.4
2566 5.0 1.5
2567 5.0 1.6
2568 5.0 1.7
2569 5.0 1.8
2570 5.0 1.9
2571 5.0 2.0
2572 5.0 2.1
2573 5.0 2.2
2574 5.0 2.3
2575 5.0 2.4
2576 5.0 2.5
2577 5.0 2.6
2578 5.0 2.7
2579 5.0 2.8
2580 5.0 2.9
2581 5.0 3.0
2582 5.0 3.1
2583 5.0 3.2
2584 5.0 3.3
2585 5.0 3.4
2586 5.0 3.5
2587 5.0 3.6
2588 5.0 3.7
2589 5.0 3.8
2590 5.0 3.9
2591 5.0 4.0
2592 5.0 4.1
2593 5.0 4.2
2594 5.0 4.3
2595 5.0 4.4
2596 5.0 4.5
2597 5.0 4.6
2598 5.0 4.7
2599 5.0 4.8
2600 5.0 4.9
2601 5.0 5.0
